/*********************************************
    * Lab01 - simple
    * Author: Coso
    * Creation Date: Mar, 2019
    *********************************************/
instance_name = "small_instance_16_simple";

d = 2;
r = 3;

SCj = [160 188];
Dk = [86 81 33];

Cjk = [[66 38 87]
 [79 41 56]];
